FEATURES = {tasks,zaps,singleStepZaps,noCodeEditor,duplicateAndReorderSteps,transfer,infoDenseView,subfolders,multiStepZaps,premiumApps,filters,formatters,connectionsViaWebhooks,versions,duplicatePaths,customLogicWithPaths,autoReplay,exportAllZaps,folderPermissions,premierSupport,sharedAppConnections,sharedWorkspace,ownerAccess,advancedAdminPermissions,userProvisioning,appRestrictions,samlSingleSignOn,customDataRetention,accountConsolidation,superAdmin,liveChat};
USAGE_LIMITS = {usersLimit,tasksLimit,zapsLimit,updateTimeThreshold,premiumAppsLimit};
PLANS = {FREE,STARTER,PROFESSIONAL,TEAM,COMPANY};
ADDONS = {};

plans_prices = [0.0,24.99,61.25,373.75,748.75];
addons_prices = [];

plans_features = array2d(PLANS, FEATURES, [
    % FREE
    1,1,1,1,1,1,1,1,0,0,0,0,0,0,0,0,0,0,0,0,0,0,0,0,0,0,0,0,0,0,
    % STARTER
    1,1,1,1,1,1,1,1,1,1,1,1,1,1,0,0,0,0,0,0,0,0,0,0,0,0,0,0,0,0,
    % PROFESSIONAL
    1,1,1,1,1,1,1,1,1,1,1,1,1,1,1,1,1,0,0,0,0,0,0,0,0,0,0,0,0,0,
    % TEAM
    1,1,1,1,1,1,1,1,1,1,1,1,1,1,1,1,1,1,1,1,1,0,0,0,0,0,0,0,0,0,
    % COMPANY
    1,1,1,1,1,1,1,1,1,1,1,1,1,1,1,1,1,1,1,1,1,1,1,1,1,1,1,1,1,1
]);
plans_usage_limits = array2d(PLANS, USAGE_LIMITS, [
    % FREE
    1,100,5,15,0,
    % STARTER
    1,750,20,15,3,
    % PROFESSIONAL
    1,2000,.inf,2,.inf,
    % TEAM
    .inf,50000,.inf,1,.inf,
    % COMPANY
    .inf,100000,.inf,1,.inf
]);

linked_features = array2d(USAGE_LIMITS, FEATURES, [
    % usersLimit
    0,0,0,0,0,0,0,0,0,0,0,0,0,0,0,0,0,0,0,0,0,0,0,0,0,0,0,0,0,0,
    % tasksLimit
    1,0,0,0,0,0,0,0,0,0,0,0,0,0,0,0,0,0,0,0,0,0,0,0,0,0,0,0,0,0,
    % zapsLimit
    0,1,0,0,0,0,0,0,0,0,0,0,0,0,0,0,0,0,0,0,0,0,0,0,0,0,0,0,0,0,
    % updateTimeThreshold
    1,1,0,0,0,0,0,0,0,0,0,0,0,0,0,0,0,0,0,0,0,0,0,0,0,0,0,0,0,0,
    % premiumAppsLimit
    0,0,0,0,0,0,0,0,1,0,0,0,0,0,0,0,0,0,0,0,0,0,0,0,0,0,0,0,0,0
]);

addons_features = array2d(ADDONS, FEATURES, [
]);
addons_usage_limits = array2d(ADDONS, USAGE_LIMITS, [
]);
addons_usage_limits_extensions = array2d(ADDONS, USAGE_LIMITS, [
]);
addons_available_for = array2d(ADDONS, PLANS, [
]);

addons_depends_on = array2d(ADDONS, ADDONS, [
]);